c File: instances/28_0.10_2.col
c
c Description: Random graph of size 28 vertices and P(0.1) of edges between any two vertices.
p col 28 378
e 1 6
e 1 17
e 2 19
e 4 5
e 4 7
e 4 9
e 4 13
e 5 11
e 5 13
e 5 20
e 6 11
e 6 18
e 6 19
e 7 26
e 10 18
e 11 13
e 11 23
e 12 20
e 13 24
e 13 28
e 15 20
e 15 27
e 19 24
e 19 28
e 20 22
e 20 23
e 22 26
e 23 28
e 24 25
e 25 27
e 26 27